
Gurobi 7.5.2 (mac64, Python) logging started Mon Nov 26 11:49:20 2018

Academic license - for non-commercial use only
Warning: lp file contains 32 repeated variable(s) in constraints, grouped them, 0 cancellation
Read LP format model from file test.lp
Reading time = 0.00 seconds
: 24 rows, 49 columns, 97 nonzeros
Optimize a model with 24 rows, 49 columns and 97 nonzeros
Coefficient statistics:
  Matrix range     [9e-03, 3e+01]
  Objective range  [1e+00, 3e+00]
  Bounds range     [1e+00, 1e+00]
  RHS range        [0e+00, 0e+00]
Presolve removed 5 rows and 10 columns
Presolve time: 0.00s
Presolved: 19 rows, 39 columns, 81 nonzeros

Iteration    Objective       Primal Inf.    Dual Inf.      Time
       0   -1.2090000e+01   2.615888e+01   0.000000e+00      0s
      16   -5.1300252e+00   0.000000e+00   0.000000e+00      0s

Solved in 16 iterations and 0.00 seconds
Optimal objective -5.130025247e+00
